
List of user-set options:

                                    Name   Value                used
                           compl_inf_tol = 1                     yes
                         constr_viol_tol = 1                     yes
                            dual_inf_tol = 1000                  yes
                           linear_solver = ma97                  yes
                              ma86_small = 1e-30                  no
                                  ma86_u = 0.0001                 no
                              ma97_order = best                  yes
                              ma97_small = 1e-30                 yes
                            ma97_switch1 = at_start              yes
                            ma97_switch2 = od_hd_reuse           yes
                                  ma97_u = 1e-06                 yes
                               ma97_umax = 0.5                   yes
                                max_iter = 1000                  yes
                    max_refinement_steps = 20                    yes
                    min_refinement_steps = 5                     yes
                                 mu_init = 1e-06                 yes
           mu_superlinear_decrease_power = 1.25                  yes
                   nlp_scaling_min_value = 1e-08                 yes
                        option_file_name = Preset_Case:_738_NCP.opt  yes
                             output_file = ./tmp/Preset_Case:_738_NCP.output  yes
                      print_user_options = yes                   yes
        required_infeasibility_reduction = 1                      no
                                     tol = 1e-08                 yes
                   warm_start_bound_frac = 1e-20                 yes
                   warm_start_bound_push = 1e-20                 yes
                   warm_start_init_point = yes                   yes
              warm_start_mult_bound_push = 1e-20                 yes
                warm_start_mult_init_max = 1e+40                 yes
             warm_start_slack_bound_frac = 1e-20                 yes
             warm_start_slack_bound_push = 1e-20                 yes

******************************************************************************
This program contains Ipopt, a library for large-scale nonlinear optimization.
 Ipopt is released as open source code under the Eclipse Public License (EPL).
         For more information visit http://projects.coin-or.org/Ipopt
******************************************************************************

This is Ipopt version 3.12.10, running with linear solver ma97.

Number of nonzeros in equality constraint Jacobian...:   117167
Number of nonzeros in inequality constraint Jacobian.:      213
Number of nonzeros in Lagrangian Hessian.............:    47513

Total number of variables............................:    29977
                     variables with only lower bounds:    11312
                variables with lower and upper bounds:    15135
                     variables with only upper bounds:        0
Total number of equality constraints.................:    29864
Total number of inequality constraints...............:       25
        inequality constraints with only lower bounds:        4
   inequality constraints with lower and upper bounds:        0
        inequality constraints with only upper bounds:       21

iter    objective    inf_pr   inf_du lg(mu)  ||d||  lg(rg) alpha_du alpha_pr  ls
   0 -1.4463906e-01 4.28e-01 2.00e+00  -6.0 0.00e+00    -  0.00e+00 0.00e+00   0
In iteration 0, 10 Slacks too small, adjusting variable bounds
   1 -1.4463906e-01 4.28e-01 8.40e+02  -6.0 1.15e+10    -  8.39e-14 4.81e-19h  1
   2 -1.4463950e-01 4.28e-01 8.37e+02  -6.0 6.04e+02    -  8.84e-03 2.01e-05f  1
   3 -1.4464133e-01 4.28e-01 8.27e+02  -6.0 4.34e+02    -  4.70e-02 1.45e-04f  1
   4 -1.4583119e-01 4.05e-01 7.94e+02  -6.0 5.10e+02    -  8.09e-03 5.32e-02f  1
   5 -1.4583348e-01 4.05e-01 7.83e+02  -6.0 6.05e+02    -  6.25e-02 4.73e-04h  1
   6 -1.4582740e-01 3.93e-01 3.69e+04  -6.0 6.18e+02    -  8.06e-04 2.94e-02h  2
   7 -1.4582246e-01 3.93e-01 6.74e+04  -6.0 6.50e+02    -  7.49e-02 4.98e-04h  2
   8 -1.4518349e-01 3.83e-01 5.89e+04  -6.0 4.32e+02    -  1.83e-02 2.53e-02h  3
   9 -1.4415565e-01 3.71e-01 8.00e+04  -6.0 3.64e+02    -  5.73e-02 3.15e-02h  3
iter    objective    inf_pr   inf_du lg(mu)  ||d||  lg(rg) alpha_du alpha_pr  ls
  10 -1.4409540e-01 3.71e-01 1.34e+05  -6.0 1.66e+02    -  8.51e-02 8.87e-04h  9
  11 -1.4404162e-01 3.70e-01 1.34e+05  -6.0 2.13e+02    -  2.48e-03 1.05e-03h  9
  12 -1.4403934e-01 3.70e-01 1.75e+05  -6.0 1.29e+02    -  8.53e-02 3.19e-05h 14
  13 -1.4395139e-01 3.70e-01 1.75e+05  -6.0 1.31e+02    -  1.21e-03 1.21e-03s 21
  14 -1.3727159e-01 3.36e-01 1.58e+05  -6.0 1.30e+02    -  9.22e-02 9.22e-02s 21
  15 -1.3078206e-01 3.03e-01 1.43e+05  -6.0 1.15e+02    -  9.85e-02 9.85e-02s 21
  16 -1.2302904e-01 4.06e-01 1.24e+05  -6.0 1.00e+02    -  1.32e-01 1.32e-01s 21
  17 -1.2233352e-01 3.95e-01 1.21e+05  -6.0 1.87e+02    -  2.64e-02 2.64e-02s 21
  18 -1.1538621e-01 5.47e-01 8.82e+04  -6.0 1.85e+02    -  2.72e-01 2.72e-01s 21
  19 -1.1478027e-01 5.29e-01 8.49e+04  -6.0 1.55e+02    -  3.68e-02 3.68e-02s 21
iter    objective    inf_pr   inf_du lg(mu)  ||d||  lg(rg) alpha_du alpha_pr  ls
  20 -1.1006568e-01 5.00e-01 6.08e+04  -6.0 2.16e+02    -  2.86e-01 2.86e-01s 21
  21 -1.0695281e-01 5.75e-01 3.85e+04  -6.0 1.63e+02    -  3.68e-01 3.68e-01s 21
  22 -1.0431253e-01 4.98e-01 2.15e+04  -6.0 8.72e+01    -  4.38e-01 4.38e-01s 21
  23 -1.0335647e-01 3.82e-01 1.62e+04  -6.0 2.38e+01    -  2.39e-01 2.39e-01s 21
  24r-1.0335647e-01 3.82e-01 1.00e+03  -1.0 0.00e+00    -  0.00e+00 0.00e+00R  1
  25r-1.0326835e-01 3.74e-01 1.00e+03  -1.0 4.85e+04    -  4.56e-05 2.04e-05f  1
  26r-1.0323885e-01 3.14e-01 4.50e+03  -1.0 2.44e+03    -  4.22e-05 1.78e-04f  1
  27r-1.0322484e-01 3.14e-01 4.15e+04  -1.0 3.57e-02   6.0 4.38e-03 1.48e-04f  1
  28r-1.0369908e-01 8.76e-02 4.17e+04  -1.0 4.84e+02    -  1.81e-03 1.09e-03f  1
  29 -1.0365193e-01 8.61e-02 3.94e+01  -6.0 1.96e+01    -  4.95e-01 1.71e-02h  1
iter    objective    inf_pr   inf_du lg(mu)  ||d||  lg(rg) alpha_du alpha_pr  ls
  30 -1.0247493e-01 5.67e-02 5.44e+02  -6.0 2.16e+01    -  2.88e-01 4.31e-01h  1
  31 -1.0163730e-01 4.82e-02 6.01e+05  -6.0 1.48e+01    -  1.08e-01 4.82e-01h  1
  32 -1.0146453e-01 3.31e-02 1.46e+05  -6.0 8.12e+00    -  1.37e-03 3.97e-01h  1
  33 -1.0144866e-01 3.48e-02 5.16e+04  -6.0 6.02e+00    -  5.39e-01 5.72e-01h  1
  34 -1.0159424e-01 2.20e-02 3.55e+02  -6.0 3.22e+00    -  7.93e-01 1.00e+00h  1
  35 -1.0190179e-01 1.37e-03 5.49e+01  -6.0 1.48e+00    -  5.34e-01 1.00e+00h  1
  36 -1.0641221e-01 5.73e-03 3.11e+01  -6.0 2.23e+01    -  5.73e-01 1.00e+00H  1
  37 -1.1241685e-01 2.26e-02 1.71e+01  -6.0 2.92e+01    -  4.71e-01 1.00e+00h  1
  38 -1.1696329e-01 3.12e-02 1.17e+01  -6.0 6.26e+01    -  3.05e-01 4.63e-01h  1
  39 -1.2407512e-01 2.69e-01 9.49e+01  -6.0 8.13e+01    -  2.83e-04 1.00e+00h  1
iter    objective    inf_pr   inf_du lg(mu)  ||d||  lg(rg) alpha_du alpha_pr  ls
  40 -1.2783832e-01 2.63e-01 4.47e+01  -6.0 8.48e+01    -  4.17e-01 5.86e-01h  1
  41 -1.3505169e-01 1.82e-01 3.14e+01  -6.0 9.53e+01    -  2.48e-01 1.00e+00H  1
  42 -1.3786851e-01 2.90e-01 2.32e+01  -6.0 1.31e+02    -  5.79e-01 2.77e-01h  1
  43 -1.4085080e-01 4.90e-01 1.94e+01  -6.0 2.81e+02    -  2.16e-01 1.61e-01h  2
  44 -1.4435141e-01 7.34e-01 1.59e+01  -6.0 3.43e+02    -  5.23e-01 1.62e-01H  1
  45 -1.4805930e-01 1.45e+00 1.39e+01  -6.0 5.16e+02    -  1.14e-01 1.28e-01h  1
  46 -1.5279395e-01 2.52e+00 1.35e+01  -6.0 5.38e+02    -  3.23e-01 1.51e-01h  1
  47 -1.5752972e-01 1.47e+01 3.03e+01  -6.0 2.38e+04    -  2.65e-02 4.24e-02h  1
  48 -1.6069271e-01 1.33e+01 3.07e+01  -6.0 5.85e+02    -  9.04e-02 9.61e-02h  1
  49 -1.6083695e-01 1.01e+01 2.53e+01  -6.0 9.54e+00  -4.0 4.56e-02 2.43e-01h  1
iter    objective    inf_pr   inf_du lg(mu)  ||d||  lg(rg) alpha_du alpha_pr  ls
  50 -1.6130337e-01 9.90e+00 3.46e+01  -6.0 9.90e+02    -  6.71e-01 1.77e-02h  1
  51 -1.6534717e-01 9.08e+00 3.79e+01  -6.0 1.27e+03    -  2.30e-01 1.19e-01h  1
  52 -1.7143854e-01 8.15e+00 6.22e+01  -6.0 2.54e+03    -  2.57e-01 1.53e-01h  1
  53 -1.7388471e-01 7.60e+00 6.81e+01  -6.0 1.30e+03    -  9.65e-04 1.02e-01h  1
  54 -1.7853438e-01 7.05e+00 8.95e+01  -6.0 1.32e+03    -  5.00e-02 1.94e-01h  1
  55 -1.8204342e-01 6.52e+00 4.90e+01  -6.0 1.38e+03    -  4.83e-01 1.37e-01h  1
  56 -1.9023357e-01 1.10e+01 5.55e+01  -6.0 3.41e+03    -  3.25e-01 1.87e-01h  1
  57 -1.9038469e-01 9.26e+00 4.30e+01  -6.0 5.03e+02  -4.5 1.66e-04 1.61e-01h  1
  58 -1.9038233e-01 8.94e+00 4.43e+01  -6.0 2.97e+00  -5.0 1.73e-01 3.55e-02h  1
  59 -1.9078882e-01 2.56e-01 2.52e+01  -6.0 9.23e+00  -5.4 8.29e-02 1.00e+00h  1
iter    objective    inf_pr   inf_du lg(mu)  ||d||  lg(rg) alpha_du alpha_pr  ls
  60 -1.9098320e-01 2.20e-01 1.84e+01  -6.0 5.70e+00  -5.9 3.22e-01 2.20e-01h  1
  61 -1.9135970e-01 4.37e-01 1.76e+01  -6.0 1.70e+01  -6.4 9.61e-01 2.90e-01h  1
  62 -1.9160661e-01 4.41e+00 1.65e+01  -6.0 1.50e+02  -6.9 7.08e-02 6.86e-02h  1
  63 -1.9160924e-01 4.05e+00 8.51e+00  -6.0 3.57e+00  -4.6 9.67e-01 8.14e-02h  1
  64 -1.9173059e-01 1.04e+00 2.33e+00  -6.0 1.75e+00  -5.1 1.00e+00 7.46e-01h  1
  65 -1.9177773e-01 9.18e-03 1.51e-01  -6.0 2.08e+00  -5.6 1.00e+00 1.00e+00h  1
  66 -1.9197879e-01 8.56e-03 1.58e-01  -6.0 5.73e+00  -6.1 1.00e+00 1.00e+00h  1
  67 -1.9202602e-01 7.67e-03 2.02e+00  -6.0 1.47e+01  -6.5 1.00e+00 1.08e-01h  1
  68 -1.9203820e-01 2.96e-03 1.67e-01  -6.0 6.43e-01  -5.2 1.00e+00 6.13e-01f  1
  69 -1.9209185e-01 6.40e-04 6.19e-03  -6.0 1.98e+00  -5.7 1.00e+00 1.00e+00f  1
iter    objective    inf_pr   inf_du lg(mu)  ||d||  lg(rg) alpha_du alpha_pr  ls
  70 -1.9226300e-01 5.29e-03 3.02e-02  -6.0 6.04e+00  -6.2 1.00e+00 1.00e+00h  1
  71 -1.9241471e-01 7.30e-03 1.38e-01  -6.0 2.14e+01  -6.6 2.18e-01 2.98e-01h  1
  72 -1.9242898e-01 3.08e-03 9.68e-03  -6.0 1.57e+00  -5.3 1.00e+00 1.00e+00f  1
  73 -1.9250308e-01 1.08e-01 2.56e+00  -6.0 4.43e+00  -5.8 2.57e-01 1.00e+00h  1
  74 -1.9258184e-01 4.78e-02 1.61e-01  -6.0 1.97e+00  -5.4 1.00e+00 1.00e+00h  1
  75 -1.9270684e-01 2.27e-01 6.99e-01  -6.0 1.10e+01  -5.8 5.51e-01 4.31e-01h  1
  76 -1.9282813e-01 1.76e-01 3.13e+00  -6.0 2.45e+01  -6.3 1.00e+00 2.24e-01h  1
  77 -1.9405981e-01 2.66e-01 2.49e+00  -6.0 7.24e+01  -6.8 1.00e+00 7.95e-01f  1
  78 -1.9423309e-01 2.61e-01 4.76e+01  -6.0 1.99e+02  -7.3 1.00e+00 4.01e-02h  1
  79 -1.9636405e-01 4.91e-01 2.30e+01  -6.0 3.37e+02  -7.7 1.57e-01 2.63e-01h  1
iter    objective    inf_pr   inf_du lg(mu)  ||d||  lg(rg) alpha_du alpha_pr  ls
  80 -1.9636662e-01 4.91e-01 2.30e+01  -6.0 7.38e+01  -5.5 2.82e-04 1.44e-04h  1
  81 -1.9596008e-01 4.99e-01 2.29e+01  -6.0 1.51e+02  -6.0 3.27e-02 3.78e-02h  1
  82 -1.9598488e-01 4.83e-01 1.79e+01  -6.0 2.76e+00  -4.7 1.99e-01 3.25e-02h  1
  83 -1.9615441e-01 4.82e-01 1.81e+01  -6.0 1.37e+02  -5.1 1.67e-02 5.00e-03h  1
  84 -1.9628613e-01 4.72e-01 1.70e+01  -6.0 2.53e+01  -5.6 5.96e-02 2.09e-02h  1
  85 -1.9633403e-01 3.95e-01 2.16e+01  -6.0 4.85e+00  -6.1 1.00e+00 2.21e-01h  1
  86 -1.9659682e-01 1.17e-01 8.88e+00  -6.0 1.30e+01  -6.6 1.00e+00 7.05e-01h  1
  87 -1.9744375e-01 4.50e-02 3.15e-01  -6.0 3.90e+01  -7.1 1.00e+00 1.00e+00h  1
  88 -1.9992858e-01 6.64e-01 2.30e+00  -6.0 1.13e+02  -7.5 1.00e+00 1.00e+00h  1
  89 -2.0188020e-01 3.00e-01 3.72e+00  -6.0 3.00e+02  -8.0 2.36e-01 2.84e-01h  1
iter    objective    inf_pr   inf_du lg(mu)  ||d||  lg(rg) alpha_du alpha_pr  ls
  90 -2.0553545e-01 1.11e+00 7.22e+00  -6.0 9.56e+02  -8.5 2.22e-01 2.13e-01h  1
  91 -2.1296072e-01 4.98e+01 2.29e+01  -6.0 9.22e+03  -9.0 2.60e-02 1.64e-01h  1
  92 -2.1340609e-01 4.61e+01 7.06e+03  -6.0 1.65e+03  -8.5 5.14e-01 8.06e-02h  1
  93 -2.1464688e-01 3.91e+01 5.16e+03  -6.0 5.94e+02  -8.1 2.56e-01 1.56e-01h  1
  94 -2.2945955e-01 2.04e+01 4.44e+02  -6.0 1.06e+03  -8.6 1.09e-01 9.75e-01h  1
Error in an AMPL evaluation. Run with "halt_on_ampl_error yes" to see details.
Warning: Cutting back alpha due to evaluation error
  95 -2.2945800e-01 2.03e+01 2.12e+02  -6.0 1.24e+01  -2.7 3.51e-03 1.30e-03h  2
  96 -2.2945825e-01 2.03e+01 1.58e+02  -6.0 1.37e+01  -3.2 2.63e-03 1.09e-03h  1
  97 -2.2927706e-01 1.78e+01 1.09e+04  -6.0 1.25e+01  -3.7 3.46e-03 1.26e-01h  1
  98 -2.2927341e-01 1.77e+01 1.07e+04  -6.0 1.05e+01  -1.5 6.74e-03 2.29e-03h  1
  99 -2.2926733e-01 1.77e+01 1.04e+04  -6.0 1.04e+01  -1.9 1.36e-02 2.74e-03h  1
iter    objective    inf_pr   inf_du lg(mu)  ||d||  lg(rg) alpha_du alpha_pr  ls
 100 -2.2917739e-01 1.70e+01 1.04e+04  -6.0 1.03e+01  -2.4 2.21e-02 3.57e-02h  1
 101 -2.2896258e-01 1.55e+01 9.72e+03  -6.0 9.87e+00  -2.9 7.54e-02 9.02e-02h  1
 102 -2.2853814e-01 1.28e+01 8.35e+03  -6.0 8.76e+00  -3.4 1.40e-01 1.72e-01h  1
 103 -2.2814277e-01 1.00e+01 6.61e+03  -6.0 7.05e+00  -3.8 1.95e-01 2.18e-01h  1
 104 -2.2726701e-01 3.55e+00 3.10e+03  -6.0 5.33e+00  -4.3 7.76e-02 6.46e-01h  1
 105 -2.2735227e-01 2.72e+00 2.16e+03  -6.0 3.05e+00  -4.8 5.24e-01 2.33e-01h  1
 106 -2.2740070e-01 2.62e+00 2.00e+03  -6.0 5.71e+00  -5.3 3.51e-01 3.73e-02h  1
 107 -2.2786975e-01 2.18e+00 1.57e+03  -6.0 1.21e+01  -5.8 7.98e-01 1.69e-01h  1
 108 -2.2799424e-01 2.10e+00 1.51e+03  -6.0 1.89e+01  -6.2 3.78e-01 3.62e-02h  1
 109 -2.2838887e-01 1.50e+00 1.08e+03  -6.0 2.46e+01  -6.7 2.23e-01 2.84e-01h  1
iter    objective    inf_pr   inf_du lg(mu)  ||d||  lg(rg) alpha_du alpha_pr  ls
 110 -2.2884445e-01 1.24e+00 8.90e+02  -6.0 7.12e+01  -7.2 9.25e-01 1.73e-01h  1
 111 -2.2899211e-01 1.20e+00 8.56e+02  -6.0 4.45e+02  -7.7 1.00e+00 3.67e-02h  1
 112 -2.3009876e-01 8.62e-01 5.92e+02  -6.0 2.47e+02  -8.1 1.00e+00 3.08e-01h  1
 113 -2.3459600e-01 1.04e+00 1.73e+02  -6.0 7.76e+02  -8.6 7.91e-01 7.07e-01h  1
 114 -2.3715912e-01 2.04e+00 1.51e+02  -6.0 3.00e+03  -9.1 1.99e-01 1.24e-01h  1
Error in an AMPL evaluation. Run with "halt_on_ampl_error yes" to see details.
Warning: Cutting back alpha due to evaluation error
 115 -2.3728359e-01 2.02e+00 2.97e+02  -6.0 8.07e+02  -8.7 3.15e-01 1.22e-02h  2
 116 -2.3692019e-01 1.81e+00 3.28e+02  -6.0 7.83e+01  -6.4 5.31e-03 1.03e-01h  1
 117 -2.3717347e-01 2.62e+00 2.80e+02  -6.0 4.07e+01  -6.0 1.01e-01 1.57e-01h  1
 118 -2.3746103e-01 1.37e+00 1.73e+02  -6.0 1.10e+02  -6.5 1.09e-05 1.01e-01F  1
 119 -2.3757548e-01 2.65e+00 1.48e+02  -6.0 7.87e+01  -7.0 2.14e-01 1.67e-01h  1
iter    objective    inf_pr   inf_du lg(mu)  ||d||  lg(rg) alpha_du alpha_pr  ls
 120 -2.3780438e-01 3.61e+00 1.08e+02  -6.0 4.85e+02  -7.4 4.33e-05 2.04e-01h  1
 121 -2.3851836e-01 6.65e+00 1.25e+02  -6.0 2.90e+03  -7.9 1.77e-02 5.51e-02h  1
 122 -2.3887894e-01 5.25e+00 1.43e+02  -6.0 2.67e+02  -8.4 2.82e-02 2.10e-01h  1
Error in an AMPL evaluation. Run with "halt_on_ampl_error yes" to see details.
Warning: Cutting back alpha due to evaluation error
 123 -2.3920672e-01 5.12e+00 4.69e+02  -6.0 6.32e+02  -8.9 2.07e-01 2.57e-02h  2
 124 -2.4099993e-01 4.34e+00 4.71e+02  -6.0 1.41e+03  -9.4 5.18e-01 1.63e-01h  1
 125 -2.4612815e-01 2.79e+00 6.44e+00  -6.0 6.39e+02  -8.9 1.00e+00 8.54e-01h  1
 126 -2.5082151e-01 6.99e+00 7.40e+00  -6.0 1.39e+03  -9.4 6.13e-01 6.78e-01h  1
 127 -2.5121742e-01 5.23e+00 1.13e+01  -6.0 1.67e+03  -9.9 2.51e-02 2.63e-01h  1
 128 -2.5125307e-01 4.95e+00 9.86e+00  -6.0 4.79e+02  -9.5 1.06e-01 8.82e-02h  1
 129 -2.5112368e-01 2.01e+00 9.06e+00  -6.0 2.74e+02  -9.0 3.94e-01 7.55e-01h  1
iter    objective    inf_pr   inf_du lg(mu)  ||d||  lg(rg) alpha_du alpha_pr  ls
 130 -2.5140526e-01 3.44e+00 1.47e+01  -6.0 1.83e+03  -9.5 2.84e-01 5.91e-01h  1
 131 -2.5216923e-01 1.42e+01 2.27e+01  -6.0 6.63e+02  -9.1 8.45e-01 1.00e+00h  1
 132 -2.5230924e-01 1.38e+01 2.18e+01  -6.0 1.27e+03  -9.6 3.19e-01 4.78e-02h  1
 133 -2.5231139e-01 1.37e+01 3.98e+01  -6.0 7.11e+02  -9.1 4.21e-01 3.33e-03h  1
 134 -2.5264973e-01 4.71e+00 2.94e+00  -6.0 4.11e+02  -8.7 1.00e+00 8.71e-01h  1
 135 -2.5283199e-01 2.97e+00 1.12e+01  -6.0 2.85e+02  -9.2 1.26e-02 3.69e-01h  1
 136 -2.5326548e-01 8.57e+00 1.27e+01  -6.0 7.75e+02  -9.7 5.87e-01 8.24e-01h  1
 137 -2.5337460e-01 1.15e+00 1.03e+01  -6.0 3.21e+02  -9.2 7.14e-01 1.00e+00h  1
 138 -2.5351712e-01 1.04e+00 9.11e+00  -6.0 2.44e+03  -9.7 1.12e-01 1.07e-01h  1
 139 -2.5372834e-01 1.19e+00 3.23e+00  -6.0 3.04e+02  -9.3 1.00e+00 9.31e-01h  1
iter    objective    inf_pr   inf_du lg(mu)  ||d||  lg(rg) alpha_du alpha_pr  ls
 140 -2.5382575e-01 1.17e+00 3.16e+00  -6.0 1.47e+04  -9.8 3.08e-02 3.19e-02h  1
 141 -2.5428258e-01 2.87e+00 7.62e+02  -6.0 9.99e+02  -9.3 9.42e-02 1.00e+00h  1
 142 -2.5453892e-01 1.73e+00 3.73e+02  -6.0 3.30e+02  -8.9 2.08e-01 5.05e-01h  1
Error in an AMPL evaluation. Run with "halt_on_ampl_error yes" to see details.
Warning: Cutting back alpha due to evaluation error
 143 -2.5453890e-01 1.73e+00 3.73e+02  -6.0 2.06e+00  -1.1 8.49e-03 1.91e-04h  2
Error in an AMPL evaluation. Run with "halt_on_ampl_error yes" to see details.
Warning: Cutting back alpha due to evaluation error
Error in an AMPL evaluation. Run with "halt_on_ampl_error yes" to see details.
Warning: Cutting back alpha due to evaluation error
Error in an AMPL evaluation. Run with "halt_on_ampl_error yes" to see details.
Warning: Cutting back alpha due to evaluation error
Error in an AMPL evaluation. Run with "halt_on_ampl_error yes" to see details.
Warning: Cutting back alpha due to evaluation error
 144 -2.5453890e-01 1.73e+00 3.73e+02  -6.0 1.89e+00  -1.5 1.77e-02 2.06e-05h  5
Error in an AMPL evaluation. Run with "halt_on_ampl_error yes" to see details.
Warning: Cutting back alpha due to evaluation error
Error in an AMPL evaluation. Run with "halt_on_ampl_error yes" to see details.
Warning: Cutting back alpha due to evaluation error
Error in an AMPL evaluation. Run with "halt_on_ampl_error yes" to see details.
Warning: Cutting back alpha due to evaluation error
Error in an AMPL evaluation. Run with "halt_on_ampl_error yes" to see details.
Warning: Cutting back alpha due to evaluation error
Error in an AMPL evaluation. Run with "halt_on_ampl_error yes" to see details.
Warning: Cutting back alpha due to evaluation error
 145 -2.5453888e-01 1.73e+00 3.74e+02  -6.0 2.18e+00  -2.0 3.23e-02 2.03e-04h  6
Error in an AMPL evaluation. Run with "halt_on_ampl_error yes" to see details.
Warning: Cutting back alpha due to evaluation error
Error in an AMPL evaluation. Run with "halt_on_ampl_error yes" to see details.
Warning: Cutting back alpha due to evaluation error
Error in an AMPL evaluation. Run with "halt_on_ampl_error yes" to see details.
Warning: Cutting back alpha due to evaluation error
Error in an AMPL evaluation. Run with "halt_on_ampl_error yes" to see details.
Warning: Cutting back alpha due to evaluation error
Error in an AMPL evaluation. Run with "halt_on_ampl_error yes" to see details.
Warning: Cutting back alpha due to evaluation error
Error in an AMPL evaluation. Run with "halt_on_ampl_error yes" to see details.
Warning: Cutting back alpha due to evaluation error
Error in an AMPL evaluation. Run with "halt_on_ampl_error yes" to see details.
Warning: Cutting back alpha due to evaluation error
 146 -2.5453886e-01 1.73e+00 3.74e+02  -6.0 2.30e+00  -2.5 4.54e-02 2.50e-04h  8
Error in an AMPL evaluation. Run with "halt_on_ampl_error yes" to see details.
Warning: Cutting back alpha due to evaluation error
Error in an AMPL evaluation. Run with "halt_on_ampl_error yes" to see details.
Warning: Cutting back alpha due to evaluation error
Error in an AMPL evaluation. Run with "halt_on_ampl_error yes" to see details.
Warning: Cutting back alpha due to evaluation error
Error in an AMPL evaluation. Run with "halt_on_ampl_error yes" to see details.
Warning: Cutting back alpha due to evaluation error
Error in an AMPL evaluation. Run with "halt_on_ampl_error yes" to see details.
Warning: Cutting back alpha due to evaluation error
Error in an AMPL evaluation. Run with "halt_on_ampl_error yes" to see details.
Warning: Cutting back alpha due to evaluation error
Error in an AMPL evaluation. Run with "halt_on_ampl_error yes" to see details.
Warning: Cutting back alpha due to evaluation error
Error in an AMPL evaluation. Run with "halt_on_ampl_error yes" to see details.
Warning: Cutting back alpha due to evaluation error
Error in an AMPL evaluation. Run with "halt_on_ampl_error yes" to see details.
Warning: Evaluation error during soft restoration phase step.
Error in an AMPL evaluation. Run with "halt_on_ampl_error yes" to see details.
Warning: Evaluation error during soft restoration phase step.
Error in an AMPL evaluation. Run with "halt_on_ampl_error yes" to see details.
Warning: Evaluation error during soft restoration phase step.
 147r-2.5453886e-01 1.73e+00 9.99e+02  -0.4 0.00e+00  -1.2 0.00e+00 3.57e-07R 13
 148r-2.5432747e-01 1.73e+00 9.99e+02  -0.4 8.87e+03    -  8.04e-06 7.45e-06f  1
 149 -2.5442138e-01 1.73e+00 3.46e+02  -6.0 1.13e+05    -  4.87e-05 4.49e-04h  1
iter    objective    inf_pr   inf_du lg(mu)  ||d||  lg(rg) alpha_du alpha_pr  ls
 150 -2.5441472e-01 1.73e+00 3.67e+02  -6.0 2.33e+05    -  7.03e-03 1.00e-05f  9
 151 -2.5571564e-01 2.73e+00 2.67e+03  -6.0 4.56e+04    -  4.91e-04 3.19e-02h  1
 152 -2.5644709e-01 3.05e+00 2.53e+03  -6.0 3.53e+04    -  4.70e-02 5.19e-02h  1
 153 -2.5669330e-01 3.13e+00 2.37e+03  -6.0 1.81e+04    -  2.49e-01 6.26e-02h  1
 154 -2.5672950e-01 3.07e+00 2.32e+03  -6.0 1.18e+04    -  4.33e-02 2.33e-02h  3
 155 -2.5677432e-01 3.02e+00 2.27e+03  -6.0 1.12e+04    -  4.00e-02 1.92e-02h  3
 156 -2.5708459e-01 4.00e+00 2.16e+03  -6.0 9.84e+03    -  4.97e-01 5.21e-02h  1
 157 -2.5711776e-01 3.96e+00 2.13e+03  -6.0 6.69e+03    -  1.30e-01 1.42e-02h  5
 158 -2.5712174e-01 3.96e+00 2.12e+03  -6.0 6.48e+03    -  2.59e-01 1.56e-03h  8
 159 -2.5713768e-01 3.93e+00 2.10e+03  -6.0 4.22e+03    -  9.65e-02 7.69e-03h  6
iter    objective    inf_pr   inf_du lg(mu)  ||d||  lg(rg) alpha_du alpha_pr  ls
 160 -2.5715386e-01 3.91e+00 2.09e+03  -6.0 6.40e+03    -  3.52e-01 8.12e-03h  6
 161 -2.5718757e-01 3.85e+00 2.04e+03  -6.0 4.01e+03    -  2.74e-01 2.13e-02h  5
 162 -2.5720479e-01 3.80e+00 2.02e+03  -6.0 5.15e+03    -  1.44e-01 1.30e-02h  6
 163 -2.5720851e-01 3.79e+00 2.01e+03  -6.0 3.76e+03    -  1.92e-01 3.19e-03h  8
 164 -2.5721019e-01 3.78e+00 2.01e+03  -6.0 3.91e+03    -  6.76e-02 1.57e-03h  9
 165 -2.5721073e-01 3.78e+00 2.01e+03  -6.0 3.82e+03    -  3.24e-02 7.62e-04h 10
 166 -2.5721069e-01 3.78e+00 2.01e+03  -6.0 6.48e+00  -1.6 3.57e-03 1.57e-04h  7
 167 -2.5720727e-01 3.73e+00 1.98e+03  -6.0 6.56e+00  -2.1 1.87e-02 1.44e-02w  1
 168 -2.5716400e-01 3.24e+00 1.72e+03  -6.0 6.61e+00  -2.6 2.20e-02 1.30e-01w  1
 169 -2.5709369e-01 2.45e+00 1.29e+03  -6.0 5.70e+00  -3.1 1.55e-01 2.47e-01w  1
iter    objective    inf_pr   inf_du lg(mu)  ||d||  lg(rg) alpha_du alpha_pr  ls
 170 -2.5721067e-01 3.78e+00 2.00e+03  -6.0 4.27e+00  -3.6 1.87e-02 1.13e-04h  7
 171 -2.5709472e-01 2.32e+00 1.21e+03  -6.0 6.66e+00  -4.0 3.42e-02 3.97e-01h  1
 172 -2.5704738e-01 1.63e+00 8.50e+02  -6.0 1.33e+01  -4.5 3.62e-03 2.97e-01h  1
 173 -2.5704613e-01 1.61e+00 8.39e+02  -6.0 2.98e+00  -5.0 3.37e-01 1.28e-02h  1
 174 -2.5705985e-01 1.47e+00 7.58e+02  -6.0 1.41e+02  -5.5 2.33e-02 9.63e-02h  1
 175 -2.5705487e-01 1.33e+00 6.68e+02  -6.0 1.67e+02  -5.9 3.53e-02 1.19e-01h  1
 176 -2.5705709e-01 1.13e+00 5.68e+02  -6.0 2.04e+01  -3.7 1.07e-02 1.49e-01h  1
 177 -2.5703677e-01 1.05e+00 5.27e+02  -6.0 2.25e+01  -4.2 1.53e-02 7.29e-02h  1
Error in an AMPL evaluation. Run with "halt_on_ampl_error yes" to see details.
Warning: Cutting back alpha due to evaluation error
 178 -2.5702656e-01 9.87e-01 4.95e+02  -6.0 3.49e+00  -3.8 1.45e-01 6.15e-02h  2
Error in an AMPL evaluation. Run with "halt_on_ampl_error yes" to see details.
Warning: Cutting back alpha due to evaluation error
 179 -2.5700782e-01 9.38e-01 4.69e+02  -6.0 5.74e+00  -4.2 2.86e-01 5.07e-02h  2
iter    objective    inf_pr   inf_du lg(mu)  ||d||  lg(rg) alpha_du alpha_pr  ls
 180 -2.5678594e-01 5.33e-01 2.50e+02  -6.0 7.10e+00  -4.7 4.81e-01 4.68e-01h  1
 181 -2.5664846e-01 2.68e-01 1.24e+02  -6.0 9.37e-01  -3.4 2.78e-01 5.04e-01h  1
 182 -2.5664341e-01 2.19e-01 1.01e+02  -6.0 3.87e-01  -3.9 8.77e-01 1.80e-01h  1
 183 -2.5667227e-01 1.37e-01 6.30e+01  -6.0 3.61e-01  -4.3 1.99e-01 3.79e-01h  1
 184 -2.5675486e-01 9.84e-03 8.29e+00  -6.0 4.06e-01  -4.8 4.38e-01 1.00e+00h  1
 185 -2.5717153e-01 2.13e-02 7.10e+01  -6.0 5.96e+00  -5.3 2.31e-01 4.96e-01h  1
 186 -2.5716045e-01 1.89e-02 6.06e+01  -6.0 5.17e+00  -5.8 2.07e-02 7.77e-02f  1
 187 -2.5723743e-01 2.28e-01 6.55e+01  -6.0 6.59e+00  -6.2 9.19e-02 2.68e-01f  1
 188 -2.5726932e-01 2.33e-01 5.45e+01  -6.0 1.58e+01  -6.7 2.16e-04 7.99e-02f  1
 189 -2.5732544e-01 2.12e-01 4.10e+01  -6.0 3.92e+01  -7.2 4.24e-01 6.83e-02f  1
iter    objective    inf_pr   inf_du lg(mu)  ||d||  lg(rg) alpha_du alpha_pr  ls
 190 -2.5742653e-01 1.71e-01 3.75e+01  -6.0 5.56e+01  -7.7 3.37e-01 1.90e-01h  1
 191 -2.5747270e-01 1.51e-01 1.65e+01  -6.0 1.54e+01  -7.3 8.97e-01 4.58e-01h  1
 192 -2.5749391e-01 3.60e-02 1.16e+00  -6.0 6.93e+00  -6.8 1.00e+00 1.00e+00h  1
 193 -2.5749875e-01 1.84e-02 8.76e-01  -6.0 2.46e+01  -7.3 8.21e-01 6.69e-01h  1
 194 -2.5750022e-01 1.73e-02 8.71e-01  -6.0 2.15e+02  -7.8 9.47e-02 5.99e-02f  1
 195 -2.5751440e-01 1.44e-02 7.84e-01  -6.0 3.78e+02  -8.3 1.79e-01 1.68e-01f  1
 196 -2.5751339e-01 1.41e-02 2.98e+00  -6.0 7.57e+01  -7.8 9.57e-02 1.82e-02h  1
 197 -2.5751289e-01 1.40e-02 4.57e+00  -6.0 8.13e+01  -7.4 7.34e-02 6.76e-03h  1
 198 -2.5745976e-01 1.92e-02 1.70e+01  -6.0 5.07e+01  -7.9 2.04e-01 4.65e-01f  1
 199 -2.5756456e-01 2.94e-02 7.37e+00  -6.0 1.46e+02  -8.4 2.13e-01 3.32e-01f  1
iter    objective    inf_pr   inf_du lg(mu)  ||d||  lg(rg) alpha_du alpha_pr  ls
 200 -2.5756675e-01 2.90e-02 6.86e+00  -6.0 3.91e+02  -7.9 1.26e-03 3.25e-03h  1
 201 -2.5756141e-01 2.83e-02 3.02e+01  -6.0 1.00e+03  -8.4 2.80e-02 3.21e-03h  1
 202 -2.5765585e-01 1.25e-01 5.86e+03  -6.0 4.25e+02  -8.9 1.72e-07 2.55e-01f  1
 203 -2.5777135e-01 3.01e-01 4.91e+03  -6.0 9.14e+02  -9.4 3.23e-01 1.64e-01f  3
 204 -2.5784604e-01 1.02e+00 4.50e+03  -6.0 1.21e+03  -9.8 1.73e-01 8.22e-02h  3
 205 -2.5784954e-01 1.07e+00 4.50e+03  -6.0 1.24e+05 -10.3 4.41e-03 3.88e-04h  4
 206 -2.5784999e-01 1.10e+00 4.50e+03  -6.0 1.52e+04 -10.8 1.56e-02 7.60e-04h  6
 207 -2.5797079e-01 9.35e-01 3.28e+03  -6.0 1.76e+02  -8.6 1.92e-01 2.71e-01H  1
 208 -2.5795552e-01 5.67e+01 1.20e+03  -6.0 3.36e+02  -9.0 3.93e-01 6.33e-01f  1
 209 -2.5799737e-01 5.06e+01 1.07e+03  -6.0 2.71e+02  -9.5 5.52e-01 1.09e-01h  1
iter    objective    inf_pr   inf_du lg(mu)  ||d||  lg(rg) alpha_du alpha_pr  ls
 210 -2.5829679e-01 7.06e+00 5.56e+01  -6.0 6.05e+02 -10.0 4.08e-01 1.00e+00h  1
 211 -2.5834817e-01 6.88e+00 8.41e+01  -6.0 2.26e+03 -10.5 1.36e-01 4.61e-02h  1
 212 -2.5844848e-01 7.39e+00 5.04e+01  -6.0 2.02e+03 -10.0 8.65e-02 1.40e-01h  1
 213 -2.5850085e-01 2.69e+01 1.83e+01  -6.0 4.27e+03 -10.5 2.08e-01 2.39e-01h  1
 214 -2.5868929e-01 5.64e+01 8.56e+01  -6.0 4.80e+03 -10.1 1.34e-01 2.83e-01h  1
 215 -2.5903171e-01 5.29e+01 2.38e+02  -6.0 3.08e+03  -9.7 7.79e-02 2.45e-01h  1
 216 -2.5898534e-01 5.29e+01 2.36e+02  -6.0 2.69e+04 -10.1 4.73e-03 4.43e-03h  2
 217 -2.5913135e-01 4.53e+01 3.34e+02  -6.0 1.55e+03  -9.7 6.78e-01 1.50e-01h  1
 218 -2.5946465e-01 2.00e+01 9.09e+01  -6.0 1.16e+03 -10.2 1.04e-01 5.63e-01h  1
 219 -2.5967918e-01 1.10e+01 9.00e+02  -6.0 2.05e+03 -10.7 1.09e-01 4.96e-01h  1
iter    objective    inf_pr   inf_du lg(mu)  ||d||  lg(rg) alpha_du alpha_pr  ls
 220 -2.5969104e-01 1.09e+01 7.72e+01  -6.0 8.62e+03  -9.3 8.75e-02 5.29e-03h  1
 221 -2.5973464e-01 4.08e+00 2.13e+03  -6.0 5.40e+02  -9.8 2.74e-02 6.30e-01h  1
 222 -2.5979902e-01 2.69e+00 6.92e+01  -6.0 1.19e+03 -10.3 3.93e-01 1.00e+00h  1
 223 -2.5980689e-01 2.65e+00 1.19e+02  -6.0 5.84e+03  -9.9 2.92e-01 1.37e-02h  2
 224 -2.5983267e-01 2.13e+00 1.01e+02  -6.0 1.10e+03 -10.4 5.62e-02 3.04e-01h  1
 225 -2.5984079e-01 4.61e+00 9.94e+01  -6.0 2.08e+04    -  9.52e-04 2.68e-02h  1
 226 -2.5991810e-01 6.05e+01 8.03e+01  -6.0 5.68e+03    -  1.19e-02 3.95e-01h  1
 227 -2.5991685e-01 3.23e+01 6.03e+01  -6.0 3.18e+03    -  8.24e-02 5.38e-01h  1
 228 -2.5985377e-01 3.22e+01 2.72e+01  -6.0 1.99e+03    -  5.20e-01 8.31e-01h  1
 229 -2.5982141e-01 4.20e+01 2.32e+01  -6.0 3.02e+03    -  2.74e-01 4.71e-01h  1
iter    objective    inf_pr   inf_du lg(mu)  ||d||  lg(rg) alpha_du alpha_pr  ls
 230 -2.5982134e-01 4.12e+01 2.16e+01  -6.0 4.45e+03    -  1.68e-01 1.90e-02H  1
 231 -2.5979289e-01 1.94e+00 2.52e+01  -6.0 4.28e+02    -  1.52e-01 1.00e+00h  1
 232 -2.5979857e-01 9.07e-05 2.49e-01  -6.0 3.87e+00  -7.2 9.89e-01 1.00e+00h  1
 233 -2.5979590e-01 1.12e-03 1.22e-02  -6.0 9.66e+00  -7.7 1.00e+00 1.00e+00h  1
 234 -2.5979302e-01 2.16e-03 1.74e-02  -6.0 1.40e+01  -8.2 1.00e+00 1.00e+00h  1
 235 -2.5978918e-01 2.24e-03 1.46e-02  -6.0 1.48e+01  -8.6 1.00e+00 1.00e+00h  1
 236 -2.5978577e-01 2.63e-02 7.72e-03  -6.0 2.62e+01  -9.1 1.00e+00 1.00e+00h  1
 237 -2.5978471e-01 4.84e-01 1.03e-02  -6.0 7.72e+01  -9.6 1.00e+00 1.00e+00h  1
 238 -2.5978508e-01 6.16e-01 2.63e-02  -6.0 2.29e+02 -10.1 1.00e+00 1.00e+00h  1
 239 -2.5978513e-01 3.20e-01 5.59e-01  -6.0 9.66e+01  -9.7 6.61e-01 1.00e+00h  1
iter    objective    inf_pr   inf_du lg(mu)  ||d||  lg(rg) alpha_du alpha_pr  ls
 240 -2.5978540e-01 8.70e-01 3.99e-02  -6.0 2.71e+02 -10.1 1.00e+00 1.00e+00h  1
 241 -2.5978500e-01 8.94e-01 2.88e+01  -6.0 1.78e+03    -  1.00e+00 8.07e-02h  2
 242 -2.5978438e-01 1.19e+00 1.51e+01  -6.0 8.72e+02    -  1.00e+00 2.40e-01h  2
 243 -2.5978420e-01 1.36e+00 1.07e+01  -6.0 7.33e+02    -  2.45e-01 2.87e-01h  1
 244 -2.5978564e-01 3.13e-02 4.00e-03  -6.0 5.24e+01    -  1.00e+00 1.00e+00h  1
 245 -2.5978562e-01 5.24e-04 3.85e-05  -6.0 6.72e+00    -  1.00e+00 1.00e+00h  1
 246 -2.5978562e-01 5.64e-06 2.51e-07  -6.0 7.00e-01    -  1.00e+00 1.00e+00h  1
 247 -2.6041237e-01 2.86e+00 4.02e+01  -7.5 2.87e+03    -  4.38e-01 2.97e-01h  1
 248 -2.6061373e-01 3.14e+00 2.10e+01  -7.5 2.89e+03    -  1.13e-01 1.86e-01h  1
 249 -2.6072616e-01 2.99e+00 6.21e+01  -7.5 2.45e+03    -  4.45e-01 1.35e-01h  1
iter    objective    inf_pr   inf_du lg(mu)  ||d||  lg(rg) alpha_du alpha_pr  ls
 250 -2.6089637e-01 3.33e+00 4.62e+01  -7.5 2.44e+03    -  1.48e-01 2.36e-01h  1
 251 -2.6091631e-01 3.17e+00 2.12e+02  -7.5 2.01e+02  -9.7 9.55e-01 4.74e-02h  1
 252 -2.6119876e-01 1.37e+00 4.26e+01  -7.5 4.20e+02 -10.2 1.05e-01 7.08e-01h  1
 253 -2.6125921e-01 1.27e+00 3.66e+01  -7.5 2.28e+03    -  9.00e-02 1.21e-01h  1
 254 -2.6127053e-01 1.12e+00 5.42e+01  -7.5 6.54e+02 -10.7 1.00e+00 1.28e-01h  1
 255 -2.6131392e-01 9.17e-01 2.73e+01  -7.5 1.11e+03 -11.1 1.00e+00 4.92e-01h  1
 256 -2.6134246e-01 9.02e-01 1.16e+01  -7.5 1.03e+03 -11.6 1.00e+00 5.77e-01h  1
 257 -2.6135162e-01 2.39e+01 2.75e+00  -7.5 1.21e+03 -11.2 2.46e-02 9.28e-01h  1
 258 -2.6135617e-01 2.29e+01 2.44e+00  -7.5 4.55e+03    -  1.76e-03 1.70e-01h  1
 259 -2.6135598e-01 1.96e+01 5.43e-01  -7.5 1.05e+03    -  6.79e-01 9.19e-01h  1
iter    objective    inf_pr   inf_du lg(mu)  ||d||  lg(rg) alpha_du alpha_pr  ls
 260 -2.6135347e-01 6.06e+00 5.18e-01  -7.5 5.78e+02    -  3.36e-01 1.00e+00h  1
 261 -2.6134999e-01 2.66e+00 3.66e-01  -7.5 1.47e+02 -11.7 1.96e-01 5.84e-01h  1
 262 -2.6134964e-01 2.33e+00 2.67e-01  -7.5 1.62e+03 -12.1 3.07e-01 1.25e-01h  4
 263 -2.6134739e-01 9.24e-01 3.53e-03  -7.5 1.50e+02    -  1.00e+00 1.00e+00h  1
 264 -2.6134738e-01 9.03e-01 1.06e-01  -7.5 8.31e+02    -  3.14e-01 3.12e-02h  6
 265 -2.6134713e-01 1.65e-01 1.91e-03  -7.5 3.34e+02 -11.7 1.00e+00 1.00e+00H  1
 266 -2.6134713e-01 2.75e-01 7.63e-03  -7.5 1.51e+02    -  8.82e-01 1.00e+00h  1
 267 -2.6134713e-01 2.85e-01 4.93e-03  -7.5 4.91e+02 -12.2 1.00e+00 1.00e+00H  1
 268 -2.6134714e-01 1.79e+00 7.68e-01  -7.5 3.93e+03 -12.7 5.12e-01 8.93e-02h  4
 269 -2.6134726e-01 1.11e+00 6.58e-03  -7.5 6.85e+02 -12.2 1.00e+00 1.00e+00H  1
iter    objective    inf_pr   inf_du lg(mu)  ||d||  lg(rg) alpha_du alpha_pr  ls
 270 -2.6134733e-01 2.49e+00 1.08e+00  -7.5 1.12e+04 -12.7 2.02e-01 2.95e-02h  4
 271 -2.6134742e-01 3.82e+00 2.17e+00  -7.5 4.16e+04 -13.2 8.02e-02 7.74e-03h  4
 272 -2.6134769e-01 1.14e+01 7.07e-01  -7.5 1.70e+03    -  1.00e+00 5.00e-01h  2
 273 -2.6134846e-01 6.77e+01 1.99e+00  -7.5 5.01e+03    -  2.39e-02 1.00e+00H  1
 274 -2.6134821e-01 5.61e-01 1.53e-02  -7.5 2.68e+02    -  1.00e+00 1.00e+00h  1
 275 -2.6134890e-01 1.98e+01 1.26e-01  -7.5 1.23e+06    -  1.08e-03 9.51e-04h  2
 276 -2.6135015e-01 3.48e+01 1.01e+00  -7.5 1.52e+03 -11.9 2.67e-02 1.00e+00h  1
 277 -2.6135032e-01 1.05e-01 4.04e-03  -7.5 4.67e+01 -11.4 1.00e+00 1.00e+00h  1
 278 -2.6135106e-01 2.39e+00 4.13e-02  -7.5 7.21e+02    -  1.00e+00 1.00e+00H  1
 279 -2.6135091e-01 4.37e-01 2.38e-03  -7.5 1.65e+02    -  1.00e+00 1.00e+00h  1
iter    objective    inf_pr   inf_du lg(mu)  ||d||  lg(rg) alpha_du alpha_pr  ls
 280 -2.6135091e-01 2.04e-04 1.27e-06  -7.5 3.97e+00    -  1.00e+00 1.00e+00h  1
 281 -2.6135091e-01 2.56e-09 1.52e-11  -7.5 1.28e-02    -  1.00e+00 1.00e+00h  1
 282 -2.6135294e-01 2.99e+00 4.42e+00  -9.0 2.03e+03    -  4.68e-01 2.11e-01h  1
 283 -2.6135586e-01 5.86e+01 1.31e+00  -9.0 4.13e+03    -  3.30e-01 4.52e-01h  1
 284 -2.6135697e-01 4.01e+01 3.40e+00  -9.0 1.52e+03    -  1.83e-01 5.33e-01h  1
 285 -2.6135754e-01 7.34e+00 1.96e+01  -9.0 3.49e+02    -  6.66e-02 8.71e-01h  1
 286 -2.6135764e-01 2.18e-01 3.04e-01  -9.0 9.92e+01 -11.0 9.35e-01 1.00e+00h  1
 287 -2.6135910e-01 5.19e+01 2.97e-01  -9.0 5.61e+03    -  4.29e-02 2.94e-01h  1
Error in an AMPL evaluation. Run with "halt_on_ampl_error yes" to see details.
Warning: Cutting back alpha due to evaluation error
 288 -2.6135877e-01 4.99e+01 4.03e+01  -9.0 2.86e+03 -11.5 8.34e-02 2.63e-01h  2
 289 -2.6135901e-01 5.01e+01 2.54e+01  -9.0 6.27e+03 -12.0 1.63e-01 6.53e-02h  2
iter    objective    inf_pr   inf_du lg(mu)  ||d||  lg(rg) alpha_du alpha_pr  ls
 290 -2.6135929e-01 4.56e+01 2.61e+01  -9.0 2.05e+03 -12.4 1.90e-01 4.41e-01h  1
 291 -2.6135884e-01 3.87e+01 6.58e+03  -9.0 1.37e+03 -12.0 7.28e-03 1.00e+00h  1
 292 -2.6135840e-01 2.32e+00 2.63e+01  -9.0 4.36e+02 -12.5 3.45e-01 1.00e+00h  1
 293 -2.6135886e-01 1.20e+00 2.85e+00  -9.0 2.44e+02 -12.1 8.23e-01 1.00e+00h  1
 294 -2.6135985e-01 2.65e+01 8.22e-02  -9.0 1.14e+03 -12.6 9.48e-01 1.00e+00h  1
 295 -2.6136059e-01 4.10e+01 1.83e+00  -9.0 5.19e+03 -13.0 2.77e-01 1.80e-01h  1
 296 -2.6136118e-01 1.46e+01 1.55e+02  -9.0 1.07e+03 -12.6 5.66e-02 1.00e+00h  1
 297 -2.6136159e-01 6.75e-01 4.77e-03  -9.0 1.67e+02 -11.3 1.00e+00 1.00e+00h  1
 298 -2.6136169e-01 7.43e-01 2.03e-01  -9.0 5.91e+02 -11.7 1.00e+00 1.39e-01h  1
 299 -2.6136191e-01 3.68e+00 3.62e-04  -9.0 5.29e+02 -12.2 1.00e+00 1.00e+00h  1
iter    objective    inf_pr   inf_du lg(mu)  ||d||  lg(rg) alpha_du alpha_pr  ls
 300 -2.6136300e-01 8.18e+01 9.23e-03  -9.0 2.48e+03 -12.7 9.21e-01 1.00e+00h  1
 301 -2.6136405e-01 5.98e+01 7.48e-02  -9.0 5.37e+03 -13.2 1.99e-02 6.33e-01H  1
 302 -2.6136369e-01 7.11e+01 2.94e-01  -9.0 5.57e+03 -11.9 3.75e-01 3.97e-01H  1
 303 -2.6136374e-01 7.13e+01 1.76e+00  -9.0 6.39e+04 -12.3 1.19e-02 2.73e-03h  4
 304 -2.6136381e-01 5.52e+01 2.09e+00  -9.0 4.87e+02 -11.9 1.80e-01 2.28e-01h  1
 305 -2.6136530e-01 5.18e+01 3.67e-01  -9.0 1.84e+03 -12.4 8.62e-01 1.00e+00h  1
 306 -2.6136532e-01 5.18e+01 3.27e-01  -9.0 1.54e+05    -  9.25e-03 2.16e-04h  5
 307 -2.6136541e-01 5.18e+01 8.09e-02  -9.0 2.49e+04    -  9.63e-02 5.31e-03h  3
 308 -2.6136573e-01 5.19e+01 2.16e-01  -9.0 5.95e+03    -  1.27e-01 8.77e-02h  1
 309 -2.6136677e-01 5.03e+01 1.06e+00  -9.0 1.67e+03    -  6.45e-01 1.00e+00h  1
iter    objective    inf_pr   inf_du lg(mu)  ||d||  lg(rg) alpha_du alpha_pr  ls
 310 -2.6136712e-01 4.90e+00 1.67e+01  -9.0 5.70e+02 -12.0 3.58e-02 1.00e+00h  1
 311 -2.6136861e-01 6.50e+01 6.09e+00  -9.0 3.28e+03    -  4.32e-02 6.18e-01h  1
 312 -2.6136858e-01 6.50e+01 6.08e+00  -9.0 4.11e+04    -  1.99e-03 2.06e-03h  5
 313 -2.6136863e-01 6.43e+01 6.26e+00  -9.0 8.04e+03    -  1.39e-01 1.33e-02h  1
 314 -2.6136918e-01 4.83e+01 4.23e+00  -9.0 2.44e+03    -  4.14e-01 3.46e-01h  1
 315 -2.6136956e-01 3.78e+01 3.86e+00  -9.0 1.73e+03    -  2.40e-01 3.90e-01h  1
 316 -2.6136987e-01 3.17e+01 2.91e+00  -9.0 2.12e+03    -  3.78e-01 2.48e-01h  1
 317 -2.6137003e-01 2.79e+01 2.51e+00  -9.0 1.69e+03    -  4.79e-02 1.68e-01h  1
 318 -2.6137026e-01 2.43e+01 1.93e+00  -9.0 1.67e+03    -  2.49e-01 2.28e-01h  1
 319 -2.6137049e-01 2.17e+01 1.37e+01  -9.0 1.67e+03    -  2.71e-02 2.58e-01h  1
iter    objective    inf_pr   inf_du lg(mu)  ||d||  lg(rg) alpha_du alpha_pr  ls
 320 -2.6137068e-01 2.31e+01 3.31e+01  -9.0 1.69e+03    -  1.61e-02 4.38e-01h  1
 321 -2.6137130e-01 3.49e+01 2.55e+02  -9.0 1.48e+03    -  1.57e-02 1.00e+00H  1
 322 -2.6137119e-01 2.86e+00 7.28e+00  -9.0 3.84e+02 -12.4 3.02e-01 1.00e+00h  1
 323 -2.6137139e-01 1.69e+01 2.62e+00  -9.0 1.30e+03 -12.9 6.60e-01 6.41e-01h  1
 324 -2.6137128e-01 6.80e+00 6.12e-01  -9.0 5.47e+02    -  5.51e-01 1.00e+00h  1
 325 -2.6137139e-01 9.56e-01 4.37e-02  -9.0 5.69e+02    -  9.87e-01 9.30e-01H  1
 326 -2.6137138e-01 4.31e-03 5.02e-07  -9.0 1.43e+01    -  1.00e+00 1.00e+00h  1
 327 -2.6137138e-01 1.89e-04 5.63e-08  -9.0 2.80e+00    -  1.00e+00 1.00e+00h  1
 328 -2.6137138e-01 4.07e-10 1.10e-13  -9.0 3.91e-03    -  1.00e+00 1.00e+00h  1

Number of Iterations....: 328

                                   (scaled)                 (unscaled)
Objective...............:  -2.6137138197803300e-01   -2.6137138197803300e-01
Dual infeasibility......:   1.0963588550557260e-13    1.0963588550557260e-13
Constraint violation....:   2.8333515048051261e-10    4.0745362639427185e-10
Complementarity.........:   9.0909090954135630e-10    9.0909090954135630e-10
Overall NLP error.......:   9.0909090954135630e-10    9.0909090954135630e-10


Number of objective function evaluations             = 616
Number of objective gradient evaluations             = 324
Number of equality constraint evaluations            = 647
Number of inequality constraint evaluations          = 614
Number of equality constraint Jacobian evaluations   = 329
Number of inequality constraint Jacobian evaluations = 329
Number of Lagrangian Hessian evaluations             = 328
Total CPU secs in IPOPT (w/o function evaluations)   =    744.761
Total CPU secs in NLP function evaluations           =     13.236

EXIT: Optimal Solution Found.
